17	4
13	8	11	19	
0	0	0	0	0	3	2	3	4	
3	0	0	7	0	3	7	8	17	
8	2	0	0	0	1	16	
5	0	0	0	9	3	5	9	17	
7	4	0	0	0	3	6	12	17	
25	0	0	8	0	2	11	17	
200	0	0	9	0	3	10	14	17	
250	0	0	0	7	3	11	13	17	
50	0	1	0	0	2	15	17	
200	1	0	0	0	1	17	
250	0	0	0	7	1	17	
125	0	1	0	0	1	17	
1	2	0	0	0	1	17	
4	0	5	0	0	1	17	
1	0	0	0	1	1	17	
7	0	2	0	0	3	17	17	17	
0	0	0	0	0	0	
